NAME: cuum740.tsp
TYPE: TSP
COMMENT: User-generated TSP file
DIMENSION: 740
EDGE_WEIGHT_TYPE: EUC_2D
NODE_COORD_SECTION
1 451.0 130.0
2 227.0 54.0
3 376.0 658.0
4 478.0 370.0
5 423.0 18.0
6 675.0 639.0
7 3.0 238.0
8 686.0 294.0
9 477.0 370.0
10 82.0 723.0
11 704.0 366.0
12 115.0 283.0
13 533.0 365.0
14 714.0 361.0
15 213.0 680.0
16 391.0 468.0
17 676.0 689.0
18 461.0 400.0
19 22.0 275.0
20 681.0 25.0
21 231.0 698.0
22 456.0 184.0
23 664.0 449.0
24 16.0 371.0
25 638.0 717.0
26 455.0 656.0
27 714.0 536.0
28 543.0 252.0
29 339.0 124.0
30 679.0 25.0
31 655.0 464.0
32 161.0 551.0
33 472.0 340.0
34 81.0 151.0
35 122.0 711.0
36 546.0 313.0
37 551.0 493.0
38 498.0 285.0
39 4.0 657.0
40 232.0 266.0
41 556.0 569.0
42 174.0 8.0
43 228.0 34.0
44 178.0 62.0
45 266.0 399.0
46 22.0 113.0
47 156.0 257.0
48 198.0 731.0
49 508.0 661.0
50 731.0 55.0
51 707.0 200.0
52 132.0 503.0
53 504.0 194.0
54 417.0 5.0
55 125.0 567.0
56 394.0 571.0
57 495.0 321.0
58 623.0 249.0
59 495.0 644.0
60 632.0 351.0
61 645.0 400.0
62 304.0 257.0
63 222.0 87.0
64 603.0 415.0
65 727.0 561.0
66 660.0 732.0
67 570.0 123.0
68 135.0 643.0
69 549.0 371.0
70 208.0 380.0
71 214.0 494.0
72 361.0 457.0
73 407.0 54.0
74 122.0 177.0
75 609.0 313.0
76 242.0 82.0
77 518.0 573.0
78 602.0 219.0
79 442.0 518.0
80 335.0 96.0
81 552.0 342.0
82 192.0 722.0
83 295.0 541.0
84 443.0 333.0
85 516.0 681.0
86 594.0 708.0
87 662.0 430.0
88 303.0 600.0
89 398.0 693.0
90 345.0 184.0
91 252.0 512.0
92 405.0 42.0
93 611.0 45.0
94 553.0 138.0
95 435.0 243.0
96 557.0 501.0
97 78.0 535.0
98 343.0 726.0
99 360.0 349.0
100 334.0 625.0
101 326.0 394.0
102 156.0 404.0
103 145.0 335.0
104 306.0 21.0
105 75.0 355.0
106 106.0 111.0
107 625.0 376.0
108 643.0 528.0
109 536.0 147.0
110 502.0 124.0
111 596.0 490.0
112 626.0 361.0
113 481.0 314.0
114 89.0 714.0
115 634.0 466.0
116 281.0 420.0
117 310.0 573.0
118 710.0 40.0
119 150.0 673.0
120 529.0 200.0
121 284.0 255.0
122 476.0 235.0
123 599.0 132.0
124 317.0 65.0
125 391.0 151.0
126 437.0 507.0
127 584.0 517.0
128 477.0 467.0
129 64.0 247.0
130 161.0 655.0
131 375.0 442.0
132 636.0 660.0
133 71.0 28.0
134 556.0 641.0
135 501.0 276.0
136 288.0 15.0
137 306.0 732.0
138 4.0 135.0
139 45.0 288.0
140 587.0 326.0
141 90.0 662.0
142 491.0 273.0
143 530.0 233.0
144 362.0 478.0
145 274.0 686.0
146 723.0 425.0
147 677.0 315.0
148 634.0 379.0
149 424.0 335.0
150 80.0 160.0
151 370.0 371.0
152 83.0 241.0
153 248.0 190.0
154 482.0 44.0
155 314.0 130.0
156 19.0 412.0
157 95.0 129.0
158 325.0 670.0
159 218.0 146.0
160 320.0 641.0
161 28.0 444.0
162 354.0 363.0
163 98.0 285.0
164 19.0 500.0
165 8.0 458.0
166 654.0 453.0
167 217.0 649.0
168 266.0 109.0
169 50.0 726.0
170 448.0 221.0
171 633.0 408.0
172 310.0 479.0
173 710.0 259.0
174 633.0 529.0
175 313.0 523.0
176 122.0 156.0
177 678.0 246.0
178 724.0 104.0
179 708.0 179.0
180 318.0 630.0
181 100.0 186.0
182 401.0 457.0
183 115.0 47.0
184 172.0 105.0
185 114.0 319.0
186 7.0 398.0
187 301.0 276.0
188 117.0 110.0
189 13.0 210.0
190 183.0 381.0
191 74.0 381.0
192 601.0 530.0
193 592.0 725.0
194 657.0 243.0
195 256.0 402.0
196 174.0 424.0
197 732.0 464.0
198 636.0 472.0
199 202.0 313.0
200 645.0 131.0
201 510.0 332.0
202 262.0 259.0
203 162.0 398.0
204 229.0 223.0
205 89.0 225.0
206 232.0 60.0
207 129.0 119.0
208 419.0 666.0
209 343.0 118.0
210 401.0 565.0
211 673.0 371.0
212 293.0 273.0
213 509.0 511.0
214 528.0 724.0
215 218.0 103.0
216 395.0 203.0
217 504.0 687.0
218 94.0 524.0
219 474.0 263.0
220 554.0 507.0
221 4.0 480.0
222 170.0 256.0
223 472.0 535.0
224 695.0 305.0
225 183.0 667.0
226 161.0 643.0
227 558.0 622.0
228 560.0 469.0
229 509.0 341.0
230 497.0 4.0
231 70.0 338.0
232 572.0 598.0
233 228.0 412.0
234 120.0 136.0
235 540.0 4.0
236 272.0 476.0
237 118.0 733.0
238 364.0 351.0
239 606.0 478.0
240 119.0 533.0
241 403.0 553.0
242 114.0 620.0
243 620.0 304.0
244 53.0 275.0
245 298.0 577.0
246 579.0 142.0
247 297.0 236.0
248 395.0 609.0
249 504.0 633.0
250 107.0 425.0
251 642.0 244.0
252 264.0 55.0
253 9.0 137.0
254 388.0 704.0
255 619.0 345.0
256 17.0 610.0
257 414.0 523.0
258 502.0 47.0
259 677.0 609.0
260 468.0 77.0
261 527.0 65.0
262 408.0 9.0
263 654.0 92.0
264 274.0 481.0
265 316.0 212.0
266 699.0 17.0
267 714.0 739.0
268 9.0 594.0
269 568.0 80.0
270 272.0 611.0
271 299.0 551.0
272 147.0 383.0
273 55.0 595.0
274 101.0 208.0
275 646.0 649.0
276 187.0 399.0
277 72.0 366.0
278 127.0 525.0
279 343.0 271.0
280 463.0 705.0
281 329.0 357.0
282 713.0 593.0
283 693.0 574.0
284 28.0 478.0
285 453.0 37.0
286 67.0 410.0
287 62.0 147.0
288 401.0 178.0
289 292.0 700.0
290 646.0 179.0
291 361.0 700.0
292 134.0 134.0
293 17.0 641.0
294 135.0 80.0
295 347.0 245.0
296 35.0 125.0
297 694.0 34.0
298 736.0 420.0
299 604.0 130.0
300 29.0 540.0
301 544.0 303.0
302 251.0 595.0
303 602.0 146.0
304 1.0 17.0
305 132.0 195.0
306 518.0 474.0
307 38.0 168.0
308 201.0 319.0
309 434.0 373.0
310 5.0 599.0
311 336.0 253.0
312 565.0 368.0
313 19.0 167.0
314 552.0 318.0
315 306.0 709.0
316 653.0 325.0
317 154.0 280.0
318 731.0 270.0
319 601.0 462.0
320 191.0 727.0
321 261.0 338.0
322 429.0 175.0
323 58.0 298.0
324 680.0 550.0
325 219.0 386.0
326 600.0 675.0
327 152.0 28.0
328 540.0 24.0
329 519.0 104.0
330 623.0 677.0
331 397.0 318.0
332 714.0 694.0
333 324.0 20.0
334 403.0 61.0
335 649.0 271.0
336 453.0 274.0
337 75.0 336.0
338 246.0 83.0
339 312.0 578.0
340 484.0 242.0
341 27.0 715.0
342 593.0 222.0
343 124.0 232.0
344 509.0 290.0
345 699.0 402.0
346 202.0 357.0
347 693.0 351.0
348 593.0 711.0
349 51.0 593.0
350 697.0 411.0
351 279.0 169.0
352 451.0 570.0
353 279.0 364.0
354 242.0 52.0
355 362.0 411.0
356 7.0 176.0
357 422.0 438.0
358 611.0 230.0
359 603.0 338.0
360 665.0 140.0
361 695.0 590.0
362 411.0 585.0
363 641.0 292.0
364 35.0 222.0
365 522.0 700.0
366 435.0 477.0
367 256.0 590.0
368 105.0 309.0
369 181.0 104.0
370 279.0 261.0
371 391.0 119.0
372 233.0 11.0
373 471.0 730.0
374 731.0 697.0
375 186.0 454.0
376 716.0 284.0
377 96.0 245.0
378 12.0 111.0
379 480.0 530.0
380 118.0 355.0
381 516.0 259.0
382 476.0 193.0
383 731.0 455.0
384 402.0 213.0
385 152.0 518.0
386 290.0 651.0
387 429.0 11.0
388 65.0 419.0
389 546.0 508.0
390 277.0 719.0
391 29.0 280.0
392 661.0 238.0
393 672.0 550.0
394 126.0 659.0
395 412.0 651.0
396 317.0 198.0
397 631.0 566.0
398 98.0 216.0
399 160.0 307.0
400 110.0 402.0
401 448.0 146.0
402 554.0 253.0
403 244.0 375.0
404 585.0 51.0
405 515.0 259.0
406 96.0 247.0
407 144.0 167.0
408 314.0 53.0
409 98.0 573.0
410 463.0 659.0
411 716.0 243.0
412 257.0 697.0
413 460.0 196.0
414 185.0 89.0
415 251.0 420.0
416 477.0 24.0
417 214.0 200.0
418 364.0 490.0
419 508.0 509.0
420 256.0 182.0
421 194.0 20.0
422 591.0 41.0
423 204.0 153.0
424 507.0 247.0
425 445.0 312.0
426 306.0 86.0
427 193.0 695.0
428 75.0 514.0
429 352.0 683.0
430 556.0 664.0
431 442.0 677.0
432 452.0 72.0
433 359.0 51.0
434 631.0 547.0
435 296.0 114.0
436 143.0 446.0
437 218.0 676.0
438 28.0 598.0
439 661.0 461.0
440 658.0 396.0
441 574.0 367.0
442 737.0 164.0
443 269.0 639.0
444 714.0 274.0
445 464.0 664.0
446 587.0 260.0
447 162.0 679.0
448 479.0 293.0
449 421.0 355.0
450 558.0 60.0
451 388.0 291.0
452 356.0 202.0
453 505.0 510.0
454 561.0 511.0
455 175.0 251.0
456 176.0 612.0
457 190.0 33.0
458 351.0 40.0
459 268.0 192.0
460 421.0 237.0
461 669.0 141.0
462 187.0 181.0
463 727.0 469.0
464 565.0 194.0
465 645.0 446.0
466 402.0 420.0
467 551.0 534.0
468 28.0 686.0
469 468.0 491.0
470 95.0 195.0
471 727.0 619.0
472 396.0 225.0
473 352.0 478.0
474 362.0 260.0
475 152.0 411.0
476 53.0 384.0
477 717.0 453.0
478 467.0 718.0
479 67.0 102.0
480 382.0 75.0
481 385.0 198.0
482 228.0 230.0
483 412.0 657.0
484 475.0 407.0
485 735.0 61.0
486 75.0 97.0
487 12.0 355.0
488 274.0 495.0
489 331.0 19.0
490 64.0 497.0
491 301.0 200.0
492 206.0 654.0
493 293.0 112.0
494 123.0 636.0
495 715.0 535.0
496 40.0 245.0
497 717.0 362.0
498 549.0 352.0
499 451.0 179.0
500 446.0 257.0
501 10.0 496.0
502 289.0 737.0
503 357.0 340.0
504 144.0 378.0
505 51.0 430.0
506 538.0 448.0
507 586.0 531.0
508 278.0 660.0
509 40.0 662.0
510 590.0 249.0
511 548.0 566.0
512 117.0 734.0
513 675.0 65.0
514 43.0 561.0
515 665.0 271.0
516 130.0 686.0
517 131.0 724.0
518 382.0 659.0
519 233.0 200.0
520 122.0 79.0
521 599.0 60.0
522 43.0 201.0
523 361.0 363.0
524 478.0 551.0
525 19.0 125.0
526 426.0 188.0
527 527.0 29.0
528 522.0 546.0
529 405.0 665.0
530 664.0 594.0
531 571.0 203.0
532 462.0 640.0
533 508.0 474.0
534 206.0 679.0
535 314.0 198.0
536 572.0 528.0
537 19.0 725.0
538 40.0 136.0
539 558.0 196.0
540 238.0 213.0
541 583.0 375.0
542 343.0 523.0
543 671.0 147.0
544 681.0 228.0
545 727.0 586.0
546 231.0 148.0
547 179.0 325.0
548 549.0 239.0
549 716.0 548.0
550 699.0 599.0
551 353.0 202.0
552 496.0 320.0
553 525.0 474.0
554 306.0 79.0
555 383.0 529.0
556 83.0 281.0
557 53.0 348.0
558 617.0 520.0
559 694.0 92.0
560 163.0 123.0
561 65.0 482.0
562 139.0 452.0
563 8.0 64.0
564 80.0 82.0
565 97.0 10.0
566 189.0 666.0
567 333.0 81.0
568 380.0 671.0
569 688.0 558.0
570 539.0 544.0
571 273.0 331.0
572 216.0 645.0
573 720.0 452.0
574 10.0 690.0
575 81.0 148.0
576 359.0 142.0
577 304.0 26.0
578 8.0 255.0
579 713.0 337.0
580 618.0 56.0
581 624.0 237.0
582 333.0 665.0
583 691.0 59.0
584 692.0 632.0
585 704.0 212.0
586 65.0 517.0
587 496.0 282.0
588 621.0 507.0
589 602.0 584.0
590 235.0 144.0
591 729.0 29.0
592 282.0 422.0
593 557.0 604.0
594 324.0 86.0
595 257.0 216.0
596 677.0 516.0
597 244.0 212.0
598 162.0 58.0
599 584.0 213.0
600 45.0 718.0
601 550.0 650.0
602 199.0 271.0
603 48.0 587.0
604 470.0 650.0
605 669.0 217.0
606 410.0 430.0
607 485.0 589.0
608 481.0 293.0
609 340.0 581.0
610 203.0 265.0
611 473.0 249.0
612 260.0 3.0
613 129.0 363.0
614 608.0 30.0
615 6.0 225.0
616 554.0 338.0
617 499.0 281.0
618 498.0 393.0
619 672.0 709.0
620 398.0 447.0
621 468.0 599.0
622 117.0 538.0
623 689.0 406.0
624 282.0 413.0
625 386.0 625.0
626 597.0 125.0
627 158.0 559.0
628 60.0 290.0
629 13.0 328.0
630 682.0 418.0
631 31.0 685.0
632 399.0 139.0
633 733.0 131.0
634 654.0 421.0
635 171.0 542.0
636 681.0 734.0
637 220.0 131.0
638 220.0 590.0
639 216.0 721.0
640 700.0 311.0
641 605.0 182.0
642 670.0 282.0
643 686.0 48.0
644 248.0 138.0
645 116.0 563.0
646 502.0 47.0
647 261.0 684.0
648 574.0 324.0
649 616.0 69.0
650 452.0 17.0
651 86.0 250.0
652 458.0 109.0
653 294.0 430.0
654 227.0 211.0
655 549.0 303.0
656 64.0 349.0
657 57.0 464.0
658 67.0 371.0
659 707.0 219.0
660 311.0 640.0
661 405.0 127.0
662 644.0 706.0
663 260.0 588.0
664 293.0 468.0
665 702.0 285.0
666 143.0 514.0
667 336.0 649.0
668 729.0 118.0
669 570.0 477.0
670 581.0 57.0
671 381.0 593.0
672 625.0 319.0
673 429.0 511.0
674 716.0 566.0
675 731.0 252.0
676 553.0 608.0
677 484.0 344.0
678 452.0 41.0
679 102.0 4.0
680 152.0 41.0
681 212.0 584.0
682 644.0 702.0
683 313.0 167.0
684 702.0 183.0
685 168.0 136.0
686 681.0 593.0
687 160.0 583.0
688 325.0 673.0
689 561.0 40.0
690 211.0 137.0
691 92.0 512.0
692 120.0 240.0
693 9.0 713.0
694 51.0 101.0
695 736.0 516.0
696 539.0 602.0
697 173.0 356.0
698 194.0 385.0
699 321.0 280.0
700 666.0 465.0
701 141.0 507.0
702 678.0 357.0
703 517.0 222.0
704 453.0 229.0
705 276.0 228.0
706 658.0 450.0
707 145.0 447.0
708 369.0 120.0
709 44.0 92.0
710 466.0 46.0
711 314.0 332.0
712 166.0 200.0
713 559.0 237.0
714 108.0 322.0
715 401.0 163.0
716 430.0 667.0
717 236.0 738.0
718 508.0 495.0
719 702.0 48.0
720 572.0 205.0
721 102.0 366.0
722 646.0 648.0
723 623.0 334.0
724 144.0 494.0
725 371.0 349.0
726 33.0 8.0
727 427.0 643.0
728 653.0 545.0
729 226.0 455.0
730 217.0 732.0
731 608.0 557.0
732 473.0 583.0
733 24.0 107.0
734 493.0 708.0
735 480.0 583.0
736 452.0 391.0
737 250.0 43.0
738 251.0 550.0
739 245.0 475.0
740 501.0 97.0
EOF





